NAME 
ROWS
 N  OBJ
 L  R0      
 L  R1      
 L  R2      
 E  R3      
COLUMNS
    MARKER    'MARKER'                 'INTORG'
    I0(4)     OBJ       -155
    I0(4)     R0        -74
    I0(4)     R1        -161
    I0(4)     R2        -93
    I0(4)     R3        284
    I1(4)     OBJ       -311
    I1(4)     R0        -43
    I1(4)     R1        -459
    I1(4)     R2        -216
    I1(4)     R3        629
    I2(4)     OBJ       -350
    I2(4)     R0        -836
    I2(4)     R1        -272
    I2(4)     R2        -928
    I2(4)     R3        679
    I3(4)     OBJ       -293
    I3(4)     R0        -389
    I3(4)     R1        -307
    I3(4)     R2        -744
    I3(4)     R3        945
    I4(4)     OBJ       -241
    I4(4)     R0        -88
    I4(4)     R1        -168
    I4(4)     R2        -728
    I4(4)     R3        618
    I5(4)     OBJ       -390
    I5(4)     R0        -36
    I5(4)     R1        -55
    I5(4)     R2        -249
    I5(4)     R3        645
    I6(4)     OBJ       -517
    I6(4)     R0        -787
    I6(4)     R1        -113
    I6(4)     R2        -635
    I6(4)     R3        693
    I7(4)     OBJ       -276
    I7(4)     R0        -305
    I7(4)     R1        -48
    I7(4)     R2        -630
    I7(4)     R3        643
    I8(4)     OBJ       -739
    I8(4)     R0        -875
    I8(4)     R1        -505
    I8(4)     R2        -87
    I8(4)     R3        397
    I9(4)     OBJ       -323
    I9(4)     R0        -341
    I9(4)     R1        -618
    I9(4)     R2        -801
    I9(4)     R3        745
    I10(4)    OBJ       -293
    I10(4)    R0        -164
    I10(4)    R1        -155
    I10(4)    R2        -271
    I10(4)    R3        542
    I11(4)    OBJ       -631
    I11(4)    R0        -29
    I11(4)    R1        -578
    I11(4)    R2        -248
    I11(4)    R3        490
    I12(4)    OBJ       -147
    I12(4)    R0        -651
    I12(4)    R1        -661
    I12(4)    R2        -259
    I12(4)    R3        960
    I13(4)    OBJ       -710
    I13(4)    R0        -513
    I13(4)    R1        -990
    I13(4)    R2        -542
    I13(4)    R3        469
    I14(4)    OBJ       -784
    I14(4)    R0        -322
    I14(4)    R1        -967
    I14(4)    R2        -554
    I14(4)    R3        233
    I15(4)    OBJ       -806
    I15(4)    R0        -892
    I15(4)    R1        -748
    I15(4)    R2        -427
    I15(4)    R3        687
    I16(4)    OBJ       -881
    I16(4)    R0        -903
    I16(4)    R1        -25
    I16(4)    R2        -597
    I16(4)    R3        718
    I17(4)    OBJ       -450
    I17(4)    R0        -838
    I17(4)    R1        -753
    I17(4)    R2        -667
    I17(4)    R3        867
    I18(4)    OBJ       -506
    I18(4)    R0        -167
    I18(4)    R1        -52
    I18(4)    R2        -474
    I18(4)    R3        316
    I19(4)    OBJ       -107
    I19(4)    R0        -641
    I19(4)    R1        -899
    I19(4)    R2        -101
    I19(4)    R3        805
    I20(1)    R3        1
    MARKER    'MARKER'                 'INTEND'
RHS
    RHS1      R0        -5598
    RHS1      R1        -4621
    RHS1      R2        -5105
    RHS1      R3        6182
BOUNDS
 UP BND1      I0(4)     1
 UP BND1      I1(4)     1
 UP BND1      I2(4)     1
 UP BND1      I3(4)     1
 UP BND1      I4(4)     1
 UP BND1      I5(4)     1
 UP BND1      I6(4)     1
 UP BND1      I7(4)     1
 UP BND1      I8(4)     1
 UP BND1      I9(4)     1
 UP BND1      I10(4)    1
 UP BND1      I11(4)    1
 UP BND1      I12(4)    1
 UP BND1      I13(4)    1
 UP BND1      I14(4)    1
 UP BND1      I15(4)    1
 UP BND1      I16(4)    1
 UP BND1      I17(4)    1
 UP BND1      I18(4)    1
 UP BND1      I19(4)    1
 LI BND1      I20(1)    0
ENDATA
